DATASET = "thpack1";
INSTANCE = "058";

WIDTH = 233;
HEIGHT = 220;
LENGTH = 587;

NO_OF_SHAPES = 3;
size = [|
  105,81,46 |
  115,81,61 |
  72,51,23 |
|];

verticality = [|
  0,1,1 |
  1,1,1 |
  0,0,1 |
|];

box_count = [
  38,
  22,
  32,
];
